
Gurobi 10.0.2 (linux64) logging started Sat 20 Jul 2024 04:05:07 PM -05

Set parameter LogFile to value "gurobi.log"
Gurobi Optimizer version 10.0.2 build v10.0.2rc0 (linux64)

CPU model: Intel(R) Core(TM) i5-1035G1 CPU @ 1.00GHz, instruction set [SSE2|AVX|AVX2|AVX512]
Thread count: 4 physical cores, 8 logical processors, using up to 8 threads

Academic license 2446675 - for non-commercial use only - registered to mi___@epn.edu.ec
Optimize a model with 2991 rows, 2243 columns and 15711 nonzeros
Model fingerprint: 0xa27c933d
Variable types: 0 continuous, 2243 integer (0 binary)
Coefficient statistics:
  Matrix range     [1e+00, 8e+01]
  Objective range  [3e-01, 4e+00]
  Bounds range     [1e+01, 1e+04]
  RHS range        [1e+00, 1e+04]
Presolve removed 2509 rows and 1395 columns
Presolve time: 0.02s
Presolved: 482 rows, 848 columns, 4229 nonzeros
Variable types: 0 continuous, 848 integer (0 binary)

Root relaxation: objective 2.732136e+05, 98 iterations, 0.00 seconds (0.00 work units)

    Nodes    |    Current Node    |     Objective Bounds      |     Work
 Expl Unexpl |  Obj  Depth IntInf | Incumbent    BestBd   Gap | It/Node Time

     0     0 273213.575    0    9          - 273213.575      -     -    0s
H    0     0                    273142.19547 273213.575  0.03%     -    0s
H    0     0                    273166.14384 273213.575  0.02%     -    0s
H    0     0                    273202.95588 273213.575  0.00%     -    0s

Cutting planes:
  MIR: 6
  StrongCG: 2

Explored 1 nodes (98 simplex iterations) in 0.04 seconds (0.03 work units)
Thread count was 8 (of 8 available processors)

Solution count 3: 273203 273166 273142 

Optimal solution found (tolerance 1.00e-04)
Best objective 2.732029558800e+05, best bound 2.732098129891e+05, gap 0.0025%
